[TITLE]

[JUNCTIONS]
;ID                      Elevation       Demand Pattern                 
 J1                      164.04199475    79.251615707 daily_pattern              ;
 J2                      157.48031496    63.401292566 daily_pattern              ;
 J3                      154.19947507    63.401292566 daily_pattern              ;
 J4                      147.63779528    47.550969424 daily_pattern              ;
 J5                      144.35695538    47.550969424 daily_pattern              ;
 J6                      141.07611549    47.550969424 daily_pattern              ;
 J7                      137.79527559    31.700646283 daily_pattern              ;
 J8                       131.2335958    31.700646283 daily_pattern              ;

[RESERVOIRS]
;ID                                   Head                  Pattern
 Reservoir                220                           ;

[TANKS]
;ID                              Elevation           Init Level            Min Level            Max Level             Diameter           Min Volume Volume Curve         Overflow            

[PIPES]
;ID                   Node1                Node2                              Length             Diameter            Roughness           Minor Loss               Status
 P1                   Reservoir            J1                       984.2519685    11.811023622             100               0                 Open   ;
 P2                   J1                   J2                        656.167979     9.842519685             100               0                 Open   ;
 P3                   J1                   J3                       721.7847769     9.842519685             100               0                 Open   ;
 P4                   J2                   J4                       590.5511811     7.874015748             100               0                 Open   ;
 P5                   J2                   J5                      557.74278215     7.874015748             100               0                 Open   ;
 P6                   J3                   J6                      623.35958005     7.874015748             100               0                 Open   ;
 P7                   J3                   J7                      688.97637795     7.874015748             100               0                 Open   ;
 P8                   J5                   J8                       524.9343832     5.905511811             100               0                 Open   ;
 P9                   J7                   J8                      492.12598425     5.905511811             100               0                 Open   ;
 P10                  J4                   J5                       459.3175853     5.905511811             100               0                 Open   ;
 P11                  J6                   J8                       459.3175853     5.905511811             100               0                 Open   ;
 P12                  J4                   J6                       721.7847769     7.874015748             100               0                 Open   ;

[PUMPS]
;ID                   Node1                Node2                Properties          

[VALVES]
;ID                   Node1                Node2                            Diameter Type              Setting           Minor Loss

[TAGS]
;type      name       tag       

[DEMANDS]
;ID        Demand     Pattern   

[STATUS]
;ID        Setting   

[PATTERNS]
;ID        Multipliers

daily_pattern 0.600000 0.500000 0.500000 0.500000 0.600000 0.800000
daily_pattern 1.200000 1.400000 1.300000 1.100000 1.000000 0.900000
daily_pattern 0.900000 1.000000 1.100000 1.200000 1.300000 1.500000
daily_pattern 1.400000 1.200000 1.000000 0.900000 0.800000 0.700000

[CURVES]
;ID         X-Value      Y-Value     

[CONTROLS]

[RULES]

[ENERGY]
GLOBAL PRICE           0.0000

[EMITTERS]
;ID        Flow coefficient

[QUALITY]

[SOURCES]
;Node      Type       Quality    Pattern   

[REACTIONS]
;Type           Pipe/Tank               Coefficient

 ORDER BULK 1
 ORDER TANK 1
 ORDER WALL 1
 GLOBAL BULK 0.0000    
 GLOBAL WALL 0.0000    

[MIXING]
;Tank ID             Model Fraction

[TIMES]
DURATION             24:00:00
HYDRAULIC TIMESTEP   01:00:00
QUALITY TIMESTEP     00:06:00
PATTERN TIMESTEP     01:00:00
PATTERN START        00:00:00
REPORT TIMESTEP      01:00:00
REPORT START         00:00:00
START CLOCKTIME      00:00:00 AM
RULE TIMESTEP        00:06:00
STATISTIC            NONE      

[REPORT]

[OPTIONS]
UNITS                GPM                 
HEADLOSS             H-W                 
SPECIFIC GRAVITY     1
VISCOSITY            1
TRIALS               200
ACCURACY             0.001
CHECKFREQ            2
MAXCHECK             10
UNBALANCED           STOP                
PATTERN              1                   
DEMAND MULTIPLIER    1
EMITTER EXPONENT     0.5
QUALITY              NONE                
DIFFUSIVITY          1
TOLERANCE            0.01

[COORDINATES]
;Node      X-Coord    Y-Coord   
Reservoir           0.000000000          0.000000000
J1                  0.000000000          0.000000000
J2                  0.000000000          0.000000000
J3                  0.000000000          0.000000000
J4                  0.000000000          0.000000000
J5                  0.000000000          0.000000000
J6                  0.000000000          0.000000000
J7                  0.000000000          0.000000000
J8                  0.000000000          0.000000000

[VERTICES]
;Link      X-Coord    Y-Coord   

[LABELS]

[BACKDROP]
UNITS    NONE

[END]
